g3 1 1 0	# problem unknown
 2 0 14 0 0 	# vars, constraints, objectives, ranges, eqns
 0 13 0 0 0 0	# nonlinear constrs, objs; ccons: lin, nonlin, nd, nzlb
 0 0	# network constraints: nonlinear, linear
 0 2 0 	# nonlinear vars in constraints, objectives, both
 0 0 0 1	# linear network variables; functions; arith, flags
 0 0 0 0 0 	# discrete variables: binary, integer, nonlinear (b,c,o)
 0 20 	# nonzeros in Jacobian, obj. gradient
 0 0	# max name lengths: constraints, variables
 0 0 0 0 0	# common exprs: b,c,o,c1,o1
O0 0
o0
o54
4
o43
v0
o2
n3
o43
v1
o2
n11.43
o43
o0
o16
o44
o2
n-0.0028673068041759667
v1
n1
o2
n12.83
o43
o0
o16
o44
o2
n-0.010160084655988286
v1
n1
n-15.8291124137
O1 0
o3
n1
v0
O2 0
o16
o3
n1
o5
v0
n2
O3 0
o0
o54
3
o3
n3
v1
o2
n-0.010160084655988286
o2
o16
o3
n12.83
o0
o16
o44
o2
n-0.010160084655988286
v1
n1
o44
o2
n-0.010160084655988286
v1
o2
n-0.0028673068041759667
o2
o16
o3
n11.43
o0
o16
o44
o2
n-0.0028673068041759667
v1
n1
o44
o2
n-0.0028673068041759667
v1
n11.0879509962
O4 0
o54
3
o2
n-0.0028673068041759667
o0
o2
o2
n0.0028673068041759667
o3
n11.43
o0
o16
o44
o2
n-0.0028673068041759667
v1
n1
o44
o2
n-0.0028673068041759667
v1
o2
o3
o2
n0.0327733167717313
o44
o2
n-0.0028673068041759667
v1
o5
o0
o16
o44
o2
n-0.0028673068041759667
v1
n1
n2
o44
o2
n-0.0028673068041759667
v1
o2
n-0.010160084655988286
o0
o2
o2
n0.010160084655988286
o3
n12.83
o0
o16
o44
o2
n-0.010160084655988286
v1
n1
o44
o2
n-0.010160084655988286
v1
o2
o3
o2
n0.1303538861363297
o44
o2
n-0.010160084655988286
v1
o5
o0
o16
o44
o2
n-0.010160084655988286
v1
n1
n2
o44
o2
n-0.010160084655988286
v1
o16
o3
n3
o5
v1
n2
O5 0
o54
18
o2
o2
n2.024341
v0
o5
v1
n0.34
o2
o2
n-2.60593
v0
o5
v1
n0.77
o2
o2
n0.4957216
o5
v0
n2
o5
v1
n0.36
o2
o2
n-0.824082
o5
v0
n2
o5
v1
n0.9
o2
o2
n0.06543703
o5
v0
n4
v1
o2
o2
o2
n-1.02461
v0
o5
v1
n2.82
o44
o2
n-1
v0
o2
o2
o2
n0.6247065
o5
v0
n3
o5
v1
n2.1
o44
o2
n-1
v0
o2
o2
o2
n0.2997521
o5
v0
n6
o5
v1
n0.9
o44
o2
n-1
v0
o2
o2
o2
n-0.353917
o5
v0
n6
o5
v1
n1.13
o44
o2
n-1
v0
o2
o2
o2
n-1.232043
o5
v0
n2
o5
v1
n3.8
o44
o16
o5
v0
n2
o2
o2
o2
n-0.8824483
o5
v0
n3
o5
v1
n2.75
o44
o16
o5
v0
n2
o2
o2
o2
n0.1349661
v0
o5
v1
n1.5
o44
o0
o2
n-0.83
o5
o0
v0
n-1.13
n2
o2
n-1.72
o5
o0
v1
n-0.414
n2
o2
o2
o2
n-0.2662928
o5
v0
n2
o5
v1
n2.5
o44
o0
o2
n-2.19
o5
o0
v0
n-0.71
n2
o2
n-5.2
o5
o0
v1
n-1.051
n2
o2
o2
o2
n0.1764733
v0
o5
v1
n2.5
o44
o0
o2
n-2.44
o5
o0
v0
n-1.2
n2
o2
n-2.31
o5
o0
v1
n-1.226
n2
o2
o2
o2
n0.01536163
v0
o5
v1
n5.4
o44
o0
o2
n-3.65
o5
o0
v0
n-1.7
n2
o2
n-1.02
o5
o0
v1
n-1.7
n2
o2
o2
o2
n-0.004667185
o5
v0
n4
o5
v1
n4
o44
o0
o2
n-8.88
o5
o0
v0
n-0.546
n2
o2
n-5.63
o5
o0
v1
n-0.904
n2
o2
o2
o2
n-11.70854
o5
v0
n2
v1
o44
o0
o2
n-8.23
o5
o0
v0
n-0.896
n2
o2
n-50.9
o5
o0
v1
n-1.42
n2
o2
o2
o2
n0.9114512
v0
o5
v1
n3.5
o44
o0
o2
n-2.01
o5
o0
v0
n-0.747
n2
o2
n-1.56
o5
o0
v1
n-0.926
n2
O6 0
o54
31
o2
o2
n0.26174812
v1
o5
v0
n3
o2
o2
n-1.648164
o5
v1
n0.9
v0
o2
o2
n0.9914432
o5
v1
n0.36
v0
o2
n-2.60593
o5
v1
n0.77
o2
n2.024341
o5
v1
n0.34
o2
o2
n-2
o2
o2
o2
n-0.8824483
o5
v0
n3
o5
v1
n2.75
o44
o16
o5
v0
n2
v0
o2
o2
n-2.6473449
o2
o44
o16
o5
v0
n2
o5
v1
n2.75
o5
v0
n2
o2
o2
n-2
o2
o2
o2
n-1.232043
o5
v0
n2
o5
v1
n3.8
o44
o16
o5
v0
n2
v0
o2
o2
n-2.464086
o2
o44
o16
o5
v0
n2
o5
v1
n3.8
v0
o16
o2
o2
o2
n-0.353917
o5
v0
n6
o5
v1
n1.13
o44
o2
n-1
v0
o2
o2
n-2.123502
o2
o44
o2
n-1
v0
o5
v1
n1.13
o5
v0
n5
o16
o2
o2
o2
n0.2997521
o5
v0
n6
o5
v1
n0.9
o44
o2
n-1
v0
o2
o2
n1.7985126
o2
o44
o2
n-1
v0
o5
v1
n0.9
o5
v0
n5
o16
o2
o2
o2
n0.6247065
o5
v0
n3
o5
v1
n2.1
o44
o2
n-1
v0
o2
o2
n1.8741195000000002
o2
o44
o2
n-1
v0
o5
v1
n2.1
o5
v0
n2
o16
o2
o2
o2
n-1.02461
v0
o5
v1
n2.82
o44
o2
n-1
v0
o2
n-1.02461
o2
o44
o2
n-1
v0
o5
v1
n2.82
o2
o2
n-4.02
o2
o2
o2
n0.9114512
v0
o5
v1
n3.5
o44
o0
o2
n-2.01
o5
o0
v0
n-0.747
n2
o2
n-1.56
o5
o0
v1
n-0.926
n2
o0
v0
n-0.747
o2
n0.9114512
o2
o44
o0
o2
n-2.01
o5
o0
v0
n-0.747
n2
o2
n-1.56
o5
o0
v1
n-0.926
n2
o5
v1
n3.5
o2
o2
n-16.46
o2
o2
o2
n-11.70854
o5
v0
n2
v1
o44
o0
o2
n-8.23
o5
o0
v0
n-0.896
n2
o2
n-50.9
o5
o0
v1
n-1.42
n2
o0
v0
n-0.896
o2
o2
n-23.41708
o2
o44
o0
o2
n-8.23
o5
o0
v0
n-0.896
n2
o2
n-50.9
o5
o0
v1
n-1.42
n2
v1
v0
o2
o2
n-17.76
o2
o2
o2
n-0.004667185
o5
v0
n4
o5
v1
n4
o44
o0
o2
n-8.88
o5
o0
v0
n-0.546
n2
o2
n-5.63
o5
o0
v1
n-0.904
n2
o0
v0
n-0.546
o2
o2
n-0.01866874
o2
o44
o0
o2
n-8.88
o5
o0
v0
n-0.546
n2
o2
n-5.63
o5
o0
v1
n-0.904
n2
o5
v1
n4
o5
v0
n3
o2
o2
n-7.3
o2
o2
o2
n0.01536163
v0
o5
v1
n5.4
o44
o0
o2
n-3.65
o5
o0
v0
n-1.7
n2
o2
n-1.02
o5
o0
v1
n-1.7
n2
o0
v0
n-1.7
o2
n0.01536163
o2
o44
o0
o2
n-3.65
o5
o0
v0
n-1.7
n2
o2
n-1.02
o5
o0
v1
n-1.7
n2
o5
v1
n5.4
o2
o2
n-4.88
o2
o2
o2
n0.1764733
v0
o5
v1
n2.5
o44
o0
o2
n-2.44
o5
o0
v0
n-1.2
n2
o2
n-2.31
o5
o0
v1
n-1.226
n2
o0
v0
n-1.2
o2
n0.1764733
o2
o44
o0
o2
n-2.44
o5
o0
v0
n-1.2
n2
o2
n-2.31
o5
o0
v1
n-1.226
n2
o5
v1
n2.5
o2
o2
n-4.38
o2
o2
o2
n-0.2662928
o5
v0
n2
o5
v1
n2.5
o44
o0
o2
n-2.19
o5
o0
v0
n-0.71
n2
o2
n-5.2
o5
o0
v1
n-1.051
n2
o0
v0
n-0.71
o2
o2
n-0.5325856
o2
o44
o0
o2
n-2.19
o5
o0
v0
n-0.71
n2
o2
n-5.2
o5
o0
v1
n-1.051
n2
o5
v1
n2.5
v0
o2
o2
n-1.66
o2
o2
o2
n0.1349661
v0
o5
v1
n1.5
o44
o0
o2
n-0.83
o5
o0
v0
n-1.13
n2
o2
n-1.72
o5
o0
v1
n-0.414
n2
o0
v0
n-1.13
o2
n0.1349661
o2
o44
o0
o2
n-0.83
o5
o0
v0
n-1.13
n2
o2
n-1.72
o5
o0
v1
n-0.414
n2
o5
v1
n1.5
O7 0
o54
46
o2
n0.9914432
o5
v1
n0.36
o2
n-1.648164
o5
v1
n0.9
o2
o2
n0.7852443599999999
v1
o5
v0
n2
o16
o0
o2
o2
n-1.02461
o5
v1
n2.82
o44
o2
n-1
v0
o2
o16
o2
o2
n-1.02461
v0
o5
v1
n2.82
o44
o2
n-1
v0
o2
n-1.02461
o2
o16
o44
o2
n-1
v0
o5
v1
n2.82
o2
o2
n3.7482390000000003
o2
o44
o2
n-1
v0
o5
v1
n2.1
v0
o16
o0
o2
o2
o2
n1.8741195000000002
o5
v0
n2
o5
v1
n2.1
o44
o2
n-1
v0
o2
o16
o2
o2
n0.6247065
o5
v0
n3
o5
v1
n2.1
o44
o2
n-1
v0
o2
o2
n1.8741195000000002
o2
o16
o44
o2
n-1
v0
o5
v1
n2.1
o5
v0
n2
o2
o2
n8.992563
o2
o44
o2
n-1
v0
o5
v1
n0.9
o5
v0
n4
o16
o0
o2
o2
o2
n1.7985126
o5
v0
n5
o5
v1
n0.9
o44
o2
n-1
v0
o2
o16
o2
o2
n0.2997521
o5
v0
n6
o5
v1
n0.9
o44
o2
n-1
v0
o2
o2
n1.7985126
o2
o16
o44
o2
n-1
v0
o5
v1
n0.9
o5
v0
n5
o2
o2
n-10.61751
o2
o44
o2
n-1
v0
o5
v1
n1.13
o5
v0
n4
o16
o0
o2
o2
o2
n-2.123502
o5
v0
n5
o5
v1
n1.13
o44
o2
n-1
v0
o2
o16
o2
o2
n-0.353917
o5
v0
n6
o5
v1
n1.13
o44
o2
n-1
v0
o2
o2
n-2.123502
o2
o16
o44
o2
n-1
v0
o5
v1
n1.13
o5
v0
n5
o2
n-2.464086
o2
o44
o16
o5
v0
n2
o5
v1
n3.8
o2
n-2
o2
o2
o2
n-1.232043
o5
v0
n2
o5
v1
n3.8
o44
o16
o5
v0
n2
o2
o2
n-2
o0
o2
o2
o2
n-2.464086
v0
o5
v1
n3.8
o44
o16
o5
v0
n2
o2
o2
o2
n-2
v0
o2
o2
n-1.232043
o5
v0
n2
o5
v1
n3.8
o44
o16
o5
v0
n2
v0
o2
o2
n-2.464086
o2
o2
o2
n-2
v0
o44
o16
o5
v0
n2
o5
v1
n3.8
v0
o2
o2
n-5.2946898
o2
o44
o16
o5
v0
n2
o5
v1
n2.75
v0
o2
n-2
o2
o2
o2
n-0.8824483
o5
v0
n3
o5
v1
n2.75
o44
o16
o5
v0
n2
o2
o2
n-2
o0
o2
o2
o2
n-2.6473449
o5
v0
n2
o5
v1
n2.75
o44
o16
o5
v0
n2
o2
o2
o2
n-2
v0
o2
o2
n-0.8824483
o5
v0
n3
o5
v1
n2.75
o44
o16
o5
v0
n2
v0
o2
o2
n-2.6473449
o2
o2
o2
n-2
v0
o44
o16
o5
v0
n2
o5
v1
n2.75
o5
v0
n2
o2
n-1.66
o2
o2
o2
n0.1349661
v0
o5
v1
n1.5
o44
o0
o2
n-0.83
o5
o0
v0
n-1.13
n2
o2
n-1.72
o5
o0
v1
n-0.414
n2
o2
o2
n-1.66
o0
o2
o2
n0.1349661
o5
v1
n1.5
o44
o0
o2
n-0.83
o5
o0
v0
n-1.13
n2
o2
n-1.72
o5
o0
v1
n-0.414
n2
o2
o2
o2
n-1.66
o0
v0
n-1.13
o2
o2
n0.1349661
v0
o5
v1
n1.5
o44
o0
o2
n-0.83
o5
o0
v0
n-1.13
n2
o2
n-1.72
o5
o0
v1
n-0.414
n2
o0
v0
n-1.13
o2
n0.1349661
o2
o2
o2
n-1.66
o0
v0
n-1.13
o44
o0
o2
n-0.83
o5
o0
v0
n-1.13
n2
o2
n-1.72
o5
o0
v1
n-0.414
n2
o5
v1
n1.5
o2
n-0.5325856
o2
o44
o0
o2
n-2.19
o5
o0
v0
n-0.71
n2
o2
n-5.2
o5
o0
v1
n-1.051
n2
o5
v1
n2.5
o2
n-4.38
o2
o2
o2
n-0.2662928
o5
v0
n2
o5
v1
n2.5
o44
o0
o2
n-2.19
o5
o0
v0
n-0.71
n2
o2
n-5.2
o5
o0
v1
n-1.051
n2
o2
o2
n-4.38
o0
o2
o2
o2
n-0.5325856
v0
o5
v1
n2.5
o44
o0
o2
n-2.19
o5
o0
v0
n-0.71
n2
o2
n-5.2
o5
o0
v1
n-1.051
n2
o2
o2
o2
n-4.38
o0
v0
n-0.71
o2
o2
n-0.2662928
o5
v0
n2
o5
v1
n2.5
o44
o0
o2
n-2.19
o5
o0
v0
n-0.71
n2
o2
n-5.2
o5
o0
v1
n-1.051
n2
o0
v0
n-0.71
o2
o2
n-0.5325856
o2
o2
o2
n-4.38
o0
v0
n-0.71
o44
o0
o2
n-2.19
o5
o0
v0
n-0.71
n2
o2
n-5.2
o5
o0
v1
n-1.051
n2
o5
v1
n2.5
v0
o2
n-4.88
o2
o2
o2
n0.1764733
v0
o5
v1
n2.5
o44
o0
o2
n-2.44
o5
o0
v0
n-1.2
n2
o2
n-2.31
o5
o0
v1
n-1.226
n2
o2
o2
n-4.88
o0
o2
o2
n0.1764733
o5
v1
n2.5
o44
o0
o2
n-2.44
o5
o0
v0
n-1.2
n2
o2
n-2.31
o5
o0
v1
n-1.226
n2
o2
o2
o2
n-4.88
o0
v0
n-1.2
o2
o2
n0.1764733
v0
o5
v1
n2.5
o44
o0
o2
n-2.44
o5
o0
v0
n-1.2
n2
o2
n-2.31
o5
o0
v1
n-1.226
n2
o0
v0
n-1.2
o2
n0.1764733
o2
o2
o2
n-4.88
o0
v0
n-1.2
o44
o0
o2
n-2.44
o5
o0
v0
n-1.2
n2
o2
n-2.31
o5
o0
v1
n-1.226
n2
o5
v1
n2.5
o2
n-7.3
o2
o2
o2
n0.01536163
v0
o5
v1
n5.4
o44
o0
o2
n-3.65
o5
o0
v0
n-1.7
n2
o2
n-1.02
o5
o0
v1
n-1.7
n2
o2
o2
n-7.3
o0
o2
o2
n0.01536163
o5
v1
n5.4
o44
o0
o2
n-3.65
o5
o0
v0
n-1.7
n2
o2
n-1.02
o5
o0
v1
n-1.7
n2
o2
o2
o2
n-7.3
o0
v0
n-1.7
o2
o2
n0.01536163
v0
o5
v1
n5.4
o44
o0
o2
n-3.65
o5
o0
v0
n-1.7
n2
o2
n-1.02
o5
o0
v1
n-1.7
n2
o0
v0
n-1.7
o2
n0.01536163
o2
o2
o2
n-7.3
o0
v0
n-1.7
o44
o0
o2
n-3.65
o5
o0
v0
n-1.7
n2
o2
n-1.02
o5
o0
v1
n-1.7
n2
o5
v1
n5.4
o2
o2
n-0.056006219999999995
o2
o44
o0
o2
n-8.88
o5
o0
v0
n-0.546
n2
o2
n-5.63
o5
o0
v1
n-0.904
n2
o5
v1
n4
o5
v0
n2
o2
n-17.76
o2
o2
o2
n-0.004667185
o5
v0
n4
o5
v1
n4
o44
o0
o2
n-8.88
o5
o0
v0
n-0.546
n2
o2
n-5.63
o5
o0
v1
n-0.904
n2
o2
o2
n-17.76
o0
o2
o2
o2
n-0.01866874
o5
v0
n3
o5
v1
n4
o44
o0
o2
n-8.88
o5
o0
v0
n-0.546
n2
o2
n-5.63
o5
o0
v1
n-0.904
n2
o2
o2
o2
n-17.76
o0
v0
n-0.546
o2
o2
n-0.004667185
o5
v0
n4
o5
v1
n4
o44
o0
o2
n-8.88
o5
o0
v0
n-0.546
n2
o2
n-5.63
o5
o0
v1
n-0.904
n2
o0
v0
n-0.546
o2
o2
n-0.01866874
o2
o2
o2
n-17.76
o0
v0
n-0.546
o44
o0
o2
n-8.88
o5
o0
v0
n-0.546
n2
o2
n-5.63
o5
o0
v1
n-0.904
n2
o5
v1
n4
o5
v0
n3
o2
n-23.41708
o2
o44
o0
o2
n-8.23
o5
o0
v0
n-0.896
n2
o2
n-50.9
o5
o0
v1
n-1.42
n2
v1
o2
n-16.46
o2
o2
o2
n-11.70854
o5
v0
n2
v1
o44
o0
o2
n-8.23
o5
o0
v0
n-0.896
n2
o2
n-50.9
o5
o0
v1
n-1.42
n2
o2
o2
n-16.46
o0
o2
o2
o2
n-23.41708
v0
v1
o44
o0
o2
n-8.23
o5
o0
v0
n-0.896
n2
o2
n-50.9
o5
o0
v1
n-1.42
n2
o2
o2
o2
n-16.46
o0
v0
n-0.896
o2
o2
n-11.70854
o5
v0
n2
v1
o44
o0
o2
n-8.23
o5
o0
v0
n-0.896
n2
o2
n-50.9
o5
o0
v1
n-1.42
n2
o0
v0
n-0.896
o2
o2
n-23.41708
o2
o2
o2
n-16.46
o0
v0
n-0.896
o44
o0
o2
n-8.23
o5
o0
v0
n-0.896
n2
o2
n-50.9
o5
o0
v1
n-1.42
n2
v1
v0
o2
n-4.02
o2
o2
o2
n0.9114512
v0
o5
v1
n3.5
o44
o0
o2
n-2.01
o5
o0
v0
n-0.747
n2
o2
n-1.56
o5
o0
v1
n-0.926
n2
o2
o2
n-4.02
o0
o2
o2
n0.9114512
o5
v1
n3.5
o44
o0
o2
n-2.01
o5
o0
v0
n-0.747
n2
o2
n-1.56
o5
o0
v1
n-0.926
n2
o2
o2
o2
n-4.02
o0
v0
n-0.747
o2
o2
n0.9114512
v0
o5
v1
n3.5
o44
o0
o2
n-2.01
o5
o0
v0
n-0.747
n2
o2
n-1.56
o5
o0
v1
n-0.926
n2
o0
v0
n-0.747
o2
n0.9114512
o2
o2
o2
n-4.02
o0
v0
n-0.747
o44
o0
o2
n-2.01
o5
o0
v0
n-0.747
n2
o2
n-1.56
o5
o0
v1
n-0.926
n2
o5
v1
n3.5
O8 0
o54
25
o2
n0.06543703
o5
v0
n4
o2
o2
n-0.7416738
o5
v0
n2
o5
v1
n-0.09999999999999998
o2
o2
n0.178459776
o5
v0
n2
o5
v1
n-0.64
o2
o2
n-2.0065661
v0
o5
v1
n-0.22999999999999998
o2
o2
n0.6882759400000001
v0
o5
v1
n-0.6599999999999999
o2
o2
n2.75
o2
o44
o16
o5
v0
n2
o2
n-0.8824483
o5
v0
n3
o5
v1
n1.75
o2
o2
n3.8
o2
o44
o16
o5
v0
n2
o2
n-1.232043
o5
v0
n2
o5
v1
n2.8
o2
o2
n1.13
o2
o44
o2
n-1
v0
o2
n-0.353917
o5
v0
n6
o5
v1
n0.1299999999999999
o2
o2
n0.9
o2
o44
o2
n-1
v0
o2
n0.2997521
o5
v0
n6
o5
v1
n-0.09999999999999998
o2
o2
n2.1
o2
o44
o2
n-1
v0
o2
n0.6247065
o5
v0
n3
o5
v1
n1.1
o2
o2
n2.82
o2
o44
o2
n-1
v0
o2
n-1.02461
v0
o5
v1
n1.8199999999999998
o2
o2
n-3.12
o2
o2
o2
n0.9114512
v0
o5
v1
n3.5
o44
o0
o2
n-2.01
o5
o0
v0
n-0.747
n2
o2
n-1.56
o5
o0
v1
n-0.926
n2
o0
v1
n-0.926
o2
o2
n3.5
o2
o44
o0
o2
n-2.01
o5
o0
v0
n-0.747
n2
o2
n-1.56
o5
o0
v1
n-0.926
n2
o2
n0.9114512
v0
o5
v1
n2.5
o2
o2
n-101.8
o2
o2
o2
n-11.70854
o5
v0
n2
v1
o44
o0
o2
n-8.23
o5
o0
v0
n-0.896
n2
o2
n-50.9
o5
o0
v1
n-1.42
n2
o0
v1
n-1.42
o2
o44
o0
o2
n-8.23
o5
o0
v0
n-0.896
n2
o2
n-50.9
o5
o0
v1
n-1.42
n2
o2
n-11.70854
o5
v0
n2
o2
o2
n-11.26
o2
o2
o2
n-0.004667185
o5
v0
n4
o5
v1
n4
o44
o0
o2
n-8.88
o5
o0
v0
n-0.546
n2
o2
n-5.63
o5
o0
v1
n-0.904
n2
o0
v1
n-0.904
o2
o2
n4
o2
o44
o0
o2
n-8.88
o5
o0
v0
n-0.546
n2
o2
n-5.63
o5
o0
v1
n-0.904
n2
o2
n-0.004667185
o5
v0
n4
o5
v1
n3
o2
o2
n-2.04
o2
o2
o2
n0.01536163
v0
o5
v1
n5.4
o44
o0
o2
n-3.65
o5
o0
v0
n-1.7
n2
o2
n-1.02
o5
o0
v1
n-1.7
n2
o0
v1
n-1.7
o2
o2
n5.4
o2
o44
o0
o2
n-3.65
o5
o0
v0
n-1.7
n2
o2
n-1.02
o5
o0
v1
n-1.7
n2
o2
n0.01536163
v0
o5
v1
n4.4
o2
o2
n-4.62
o2
o2
o2
n0.1764733
v0
o5
v1
n2.5
o44
o0
o2
n-2.44
o5
o0
v0
n-1.2
n2
o2
n-2.31
o5
o0
v1
n-1.226
n2
o0
v1
n-1.226
o2
o2
n2.5
o2
o44
o0
o2
n-2.44
o5
o0
v0
n-1.2
n2
o2
n-2.31
o5
o0
v1
n-1.226
n2
o2
n0.1764733
v0
o5
v1
n1.5
o2
o2
n-10.4
o2
o2
o2
n-0.2662928
o5
v0
n2
o5
v1
n2.5
o44
o0
o2
n-2.19
o5
o0
v0
n-0.71
n2
o2
n-5.2
o5
o0
v1
n-1.051
n2
o0
v1
n-1.051
o2
o2
n2.5
o2
o44
o0
o2
n-2.19
o5
o0
v0
n-0.71
n2
o2
n-5.2
o5
o0
v1
n-1.051
n2
o2
n-0.2662928
o5
v0
n2
o5
v1
n1.5
o2
o2
n-3.44
o2
o2
o2
n0.1349661
v0
o5
v1
n1.5
o44
o0
o2
n-0.83
o5
o0
v0
n-1.13
n2
o2
n-1.72
o5
o0
v1
n-0.414
n2
o0
v1
n-0.414
o2
o2
n1.5
o2
o44
o0
o2
n-0.83
o5
o0
v0
n-1.13
n2
o2
n-1.72
o5
o0
v1
n-0.414
n2
o2
n0.1349661
v0
o5
v1
n0.5
O9 0
o54
37
o2
o2
n-0.4542621204
v0
o5
v1
n-1.66
o2
o2
n0.461510203
v0
o5
v1
n-1.23
o2
o2
n-0.11421425664
o5
v0
n2
o5
v1
n-1.6400000000000001
o2
o2
n0.07416737999999999
o5
v0
n2
o5
v1
n-1.1
o2
o2
n5.1324
o2
o44
o2
n-1
v0
o2
n-1.02461
v0
o5
v1
n0.8199999999999998
o2
o2
n2.3100000000000005
o2
o44
o2
n-1
v0
o2
n0.6247065
o5
v0
n3
o5
v1
n0.10000000000000009
o2
o2
n-0.08999999999999998
o2
o44
o2
n-1
v0
o2
n0.2997521
o5
v0
n6
o5
v1
n-1.1
o2
o2
n0.14689999999999986
o2
o44
o2
n-1
v0
o2
n-0.353917
o5
v0
n6
o5
v1
n-0.8700000000000001
o2
o2
n10.639999999999999
o2
o44
o16
o5
v0
n2
o2
n-1.232043
o5
v0
n2
o5
v1
n1.7999999999999998
o2
o2
n4.8125
o2
o44
o16
o5
v0
n2
o2
n-0.8824483
o5
v0
n3
o5
v1
n0.75
o2
n-3.44
o2
o2
o2
n0.1349661
v0
o5
v1
n1.5
o44
o0
o2
n-0.83
o5
o0
v0
n-1.13
n2
o2
n-1.72
o5
o0
v1
n-0.414
n2
o2
o2
n-3.44
o0
o2
o2
o2
n1.5
o5
v1
n0.5
o2
n0.1349661
v0
o44
o0
o2
n-0.83
o5
o0
v0
n-1.13
n2
o2
n-1.72
o5
o0
v1
n-0.414
n2
o2
o2
o2
n-3.44
o0
v1
n-0.414
o2
o2
n0.1349661
v0
o5
v1
n1.5
o44
o0
o2
n-0.83
o5
o0
v0
n-1.13
n2
o2
n-1.72
o5
o0
v1
n-0.414
n2
o0
v1
n-0.414
o2
o2
n0.75
o2
o44
o0
o2
n-0.83
o5
o0
v0
n-1.13
n2
o2
n-1.72
o5
o0
v1
n-0.414
n2
o2
n0.1349661
v0
o5
v1
n-0.5
o2
o2
n1.5
o2
o2
o2
n-3.44
o0
v1
n-0.414
o44
o0
o2
n-0.83
o5
o0
v0
n-1.13
n2
o2
n-1.72
o5
o0
v1
n-0.414
n2
o2
n0.1349661
v0
o5
v1
n0.5
o2
o2
n3.75
o2
o44
o0
o2
n-2.19
o5
o0
v0
n-0.71
n2
o2
n-5.2
o5
o0
v1
n-1.051
n2
o2
n-0.2662928
o5
v0
n2
o5
v1
n0.5
o2
n-10.4
o2
o2
o2
n-0.2662928
o5
v0
n2
o5
v1
n2.5
o44
o0
o2
n-2.19
o5
o0
v0
n-0.71
n2
o2
n-5.2
o5
o0
v1
n-1.051
n2
o2
o2
n-10.4
o0
o2
o2
o2
n2.5
o5
v1
n1.5
o2
n-0.2662928
o5
v0
n2
o44
o0
o2
n-2.19
o5
o0
v0
n-0.71
n2
o2
n-5.2
o5
o0
v1
n-1.051
n2
o2
o2
o2
n-10.4
o0
v1
n-1.051
o2
o2
n-0.2662928
o5
v0
n2
o5
v1
n2.5
o44
o0
o2
n-2.19
o5
o0
v0
n-0.71
n2
o2
n-5.2
o5
o0
v1
n-1.051
n2
o0
v1
n-1.051
o2
o2
n2.5
o2
o2
o2
n-10.4
o0
v1
n-1.051
o44
o0
o2
n-2.19
o5
o0
v0
n-0.71
n2
o2
n-5.2
o5
o0
v1
n-1.051
n2
o2
n-0.2662928
o5
v0
n2
o5
v1
n1.5
o2
o2
n3.75
o2
o44
o0
o2
n-2.44
o5
o0
v0
n-1.2
n2
o2
n-2.31
o5
o0
v1
n-1.226
n2
o2
n0.1764733
v0
o5
v1
n0.5
o2
n-4.62
o2
o2
o2
n0.1764733
v0
o5
v1
n2.5
o44
o0
o2
n-2.44
o5
o0
v0
n-1.2
n2
o2
n-2.31
o5
o0
v1
n-1.226
n2
o2
o2
n-4.62
o0
o2
o2
o2
n2.5
o5
v1
n1.5
o2
n0.1764733
v0
o44
o0
o2
n-2.44
o5
o0
v0
n-1.2
n2
o2
n-2.31
o5
o0
v1
n-1.226
n2
o2
o2
o2
n-4.62
o0
v1
n-1.226
o2
o2
n0.1764733
v0
o5
v1
n2.5
o44
o0
o2
n-2.44
o5
o0
v0
n-1.2
n2
o2
n-2.31
o5
o0
v1
n-1.226
n2
o0
v1
n-1.226
o2
o2
n2.5
o2
o2
o2
n-4.62
o0
v1
n-1.226
o44
o0
o2
n-2.44
o5
o0
v0
n-1.2
n2
o2
n-2.31
o5
o0
v1
n-1.226
n2
o2
n0.1764733
v0
o5
v1
n1.5
o2
o2
n23.760000000000005
o2
o44
o0
o2
n-3.65
o5
o0
v0
n-1.7
n2
o2
n-1.02
o5
o0
v1
n-1.7
n2
o2
n0.01536163
v0
o5
v1
n3.4000000000000004
o2
n-2.04
o2
o2
o2
n0.01536163
v0
o5
v1
n5.4
o44
o0
o2
n-3.65
o5
o0
v0
n-1.7
n2
o2
n-1.02
o5
o0
v1
n-1.7
n2
o2
o2
n-2.04
o0
o2
o2
o2
n5.4
o5
v1
n4.4
o2
n0.01536163
v0
o44
o0
o2
n-3.65
o5
o0
v0
n-1.7
n2
o2
n-1.02
o5
o0
v1
n-1.7
n2
o2
o2
o2
n-2.04
o0
v1
n-1.7
o2
o2
n0.01536163
v0
o5
v1
n5.4
o44
o0
o2
n-3.65
o5
o0
v0
n-1.7
n2
o2
n-1.02
o5
o0
v1
n-1.7
n2
o0
v1
n-1.7
o2
o2
n5.4
o2
o2
o2
n-2.04
o0
v1
n-1.7
o44
o0
o2
n-3.65
o5
o0
v0
n-1.7
n2
o2
n-1.02
o5
o0
v1
n-1.7
n2
o2
n0.01536163
v0
o5
v1
n4.4
o2
o2
n12
o2
o44
o0
o2
n-8.88
o5
o0
v0
n-0.546
n2
o2
n-5.63
o5
o0
v1
n-0.904
n2
o2
n-0.004667185
o5
v0
n4
o5
v1
n2
o2
n-11.26
o2
o2
o2
n-0.004667185
o5
v0
n4
o5
v1
n4
o44
o0
o2
n-8.88
o5
o0
v0
n-0.546
n2
o2
n-5.63
o5
o0
v1
n-0.904
n2
o2
o2
n-11.26
o0
o2
o2
o2
n4
o5
v1
n3
o2
n-0.004667185
o5
v0
n4
o44
o0
o2
n-8.88
o5
o0
v0
n-0.546
n2
o2
n-5.63
o5
o0
v1
n-0.904
n2
o2
o2
o2
n-11.26
o0
v1
n-0.904
o2
o2
n-0.004667185
o5
v0
n4
o5
v1
n4
o44
o0
o2
n-8.88
o5
o0
v0
n-0.546
n2
o2
n-5.63
o5
o0
v1
n-0.904
n2
o0
v1
n-0.904
o2
o2
n4
o2
o2
o2
n-11.26
o0
v1
n-0.904
o44
o0
o2
n-8.88
o5
o0
v0
n-0.546
n2
o2
n-5.63
o5
o0
v1
n-0.904
n2
o2
n-0.004667185
o5
v0
n4
o5
v1
n3
o2
n-101.8
o2
o2
o2
n-11.70854
o5
v0
n2
v1
o44
o0
o2
n-8.23
o5
o0
v0
n-0.896
n2
o2
n-50.9
o5
o0
v1
n-1.42
n2
o2
o2
n-101.8
o0
o2
o2
n-11.70854
o5
v0
n2
o44
o0
o2
n-8.23
o5
o0
v0
n-0.896
n2
o2
n-50.9
o5
o0
v1
n-1.42
n2
o2
o2
o2
n-101.8
o0
v1
n-1.42
o2
o2
n-11.70854
o5
v0
n2
v1
o44
o0
o2
n-8.23
o5
o0
v0
n-0.896
n2
o2
n-50.9
o5
o0
v1
n-1.42
n2
o0
v1
n-1.42
o2
o2
o2
n-101.8
o0
v1
n-1.42
o44
o0
o2
n-8.23
o5
o0
v0
n-0.896
n2
o2
n-50.9
o5
o0
v1
n-1.42
n2
o2
n-11.70854
o5
v0
n2
o2
o2
n8.75
o2
o44
o0
o2
n-2.01
o5
o0
v0
n-0.747
n2
o2
n-1.56
o5
o0
v1
n-0.926
n2
o2
n0.9114512
v0
o5
v1
n1.5
o2
n-3.12
o2
o2
o2
n0.9114512
v0
o5
v1
n3.5
o44
o0
o2
n-2.01
o5
o0
v0
n-0.747
n2
o2
n-1.56
o5
o0
v1
n-0.926
n2
o2
o2
n-3.12
o0
o2
o2
o2
n3.5
o5
v1
n2.5
o2
n0.9114512
v0
o44
o0
o2
n-2.01
o5
o0
v0
n-0.747
n2
o2
n-1.56
o5
o0
v1
n-0.926
n2
o2
o2
o2
n-3.12
o0
v1
n-0.926
o2
o2
n0.9114512
v0
o5
v1
n3.5
o44
o0
o2
n-2.01
o5
o0
v0
n-0.747
n2
o2
n-1.56
o5
o0
v1
n-0.926
n2
o0
v1
n-0.926
o2
o2
n3.5
o2
o2
o2
n-3.12
o0
v1
n-0.926
o44
o0
o2
n-2.01
o5
o0
v0
n-0.747
n2
o2
n-1.56
o5
o0
v1
n-0.926
n2
o2
n0.9114512
v0
o5
v1
n2.5
O10 0
o54
26
o2
n0.6882759400000001
o5
v1
n-0.6599999999999999
o2
n-2.0065661
o5
v1
n-0.22999999999999998
o2
o2
n0.356919552
v0
o5
v1
n-0.64
o2
o2
n-1.4833476
v0
o5
v1
n-0.09999999999999998
o2
n0.26174812
o5
v0
n3
o2
o2
n2.82
o0
o2
n-1.02461
o44
o2
n-1
v0
o2
o16
o44
o2
n-1
v0
o2
n-1.02461
v0
o5
v1
n1.8199999999999998
o2
o2
n2.1
o0
o2
o2
n1.8741195000000002
o5
v0
n2
o44
o2
n-1
v0
o2
o16
o44
o2
n-1
v0
o2
n0.6247065
o5
v0
n3
o5
v1
n1.1
o2
o2
n0.9
o0
o2
o2
n1.7985126
o5
v0
n5
o44
o2
n-1
v0
o2
o16
o44
o2
n-1
v0
o2
n0.2997521
o5
v0
n6
o5
v1
n-0.09999999999999998
o2
o2
n1.13
o0
o2
o2
n-2.123502
o5
v0
n5
o44
o2
n-1
v0
o2
o16
o44
o2
n-1
v0
o2
n-0.353917
o5
v0
n6
o5
v1
n0.1299999999999999
o2
o2
n3.8
o0
o2
o2
n-2.464086
v0
o44
o16
o5
v0
n2
o2
o2
o2
n-2
v0
o44
o16
o5
v0
n2
o2
n-1.232043
o5
v0
n2
o5
v1
n2.8
o2
o2
n2.75
o0
o2
o2
n-2.6473449
o5
v0
n2
o44
o16
o5
v0
n2
o2
o2
o2
n-2
v0
o44
o16
o5
v0
n2
o2
n-0.8824483
o5
v0
n3
o5
v1
n1.75
o2
o2
n-3.44
o0
o2
o2
n0.1349661
o5
v1
n1.5
o44
o0
o2
n-0.83
o5
o0
v0
n-1.13
n2
o2
n-1.72
o5
o0
v1
n-0.414
n2
o2
o2
o2
n-1.66
o0
v0
n-1.13
o2
o2
n0.1349661
v0
o5
v1
n1.5
o44
o0
o2
n-0.83
o5
o0
v0
n-1.13
n2
o2
n-1.72
o5
o0
v1
n-0.414
n2
o0
v1
n-0.414
o2
o2
n1.5
o0
o2
n0.1349661
o44
o0
o2
n-0.83
o5
o0
v0
n-1.13
n2
o2
n-1.72
o5
o0
v1
n-0.414
n2
o2
o2
o2
n-1.66
o0
v0
n-1.13
o44
o0
o2
n-0.83
o5
o0
v0
n-1.13
n2
o2
n-1.72
o5
o0
v1
n-0.414
n2
o2
n0.1349661
v0
o5
v1
n0.5
o2
o2
n-10.4
o0
o2
o2
o2
n-0.5325856
v0
o5
v1
n2.5
o44
o0
o2
n-2.19
o5
o0
v0
n-0.71
n2
o2
n-5.2
o5
o0
v1
n-1.051
n2
o2
o2
o2
n-4.38
o0
v0
n-0.71
o2
o2
n-0.2662928
o5
v0
n2
o5
v1
n2.5
o44
o0
o2
n-2.19
o5
o0
v0
n-0.71
n2
o2
n-5.2
o5
o0
v1
n-1.051
n2
o0
v1
n-1.051
o2
o2
n2.5
o0
o2
o2
n-0.5325856
v0
o44
o0
o2
n-2.19
o5
o0
v0
n-0.71
n2
o2
n-5.2
o5
o0
v1
n-1.051
n2
o2
o2
o2
n-4.38
o0
v0
n-0.71
o44
o0
o2
n-2.19
o5
o0
v0
n-0.71
n2
o2
n-5.2
o5
o0
v1
n-1.051
n2
o2
n-0.2662928
o5
v0
n2
o5
v1
n1.5
o2
o2
n-4.62
o0
o2
o2
n0.1764733
o5
v1
n2.5
o44
o0
o2
n-2.44
o5
o0
v0
n-1.2
n2
o2
n-2.31
o5
o0
v1
n-1.226
n2
o2
o2
o2
n-4.88
o0
v0
n-1.2
o2
o2
n0.1764733
v0
o5
v1
n2.5
o44
o0
o2
n-2.44
o5
o0
v0
n-1.2
n2
o2
n-2.31
o5
o0
v1
n-1.226
n2
o0
v1
n-1.226
o2
o2
n2.5
o0
o2
n0.1764733
o44
o0
o2
n-2.44
o5
o0
v0
n-1.2
n2
o2
n-2.31
o5
o0
v1
n-1.226
n2
o2
o2
o2
n-4.88
o0
v0
n-1.2
o44
o0
o2
n-2.44
o5
o0
v0
n-1.2
n2
o2
n-2.31
o5
o0
v1
n-1.226
n2
o2
n0.1764733
v0
o5
v1
n1.5
o2
o2
n-2.04
o0
o2
o2
n0.01536163
o5
v1
n5.4
o44
o0
o2
n-3.65
o5
o0
v0
n-1.7
n2
o2
n-1.02
o5
o0
v1
n-1.7
n2
o2
o2
o2
n-7.3
o0
v0
n-1.7
o2
o2
n0.01536163
v0
o5
v1
n5.4
o44
o0
o2
n-3.65
o5
o0
v0
n-1.7
n2
o2
n-1.02
o5
o0
v1
n-1.7
n2
o0
v1
n-1.7
o2
o2
n5.4
o0
o2
n0.01536163
o44
o0
o2
n-3.65
o5
o0
v0
n-1.7
n2
o2
n-1.02
o5
o0
v1
n-1.7
n2
o2
o2
o2
n-7.3
o0
v0
n-1.7
o44
o0
o2
n-3.65
o5
o0
v0
n-1.7
n2
o2
n-1.02
o5
o0
v1
n-1.7
n2
o2
n0.01536163
v0
o5
v1
n4.4
o2
o2
n-11.26
o0
o2
o2
o2
n-0.01866874
o5
v0
n3
o5
v1
n4
o44
o0
o2
n-8.88
o5
o0
v0
n-0.546
n2
o2
n-5.63
o5
o0
v1
n-0.904
n2
o2
o2
o2
n-17.76
o0
v0
n-0.546
o2
o2
n-0.004667185
o5
v0
n4
o5
v1
n4
o44
o0
o2
n-8.88
o5
o0
v0
n-0.546
n2
o2
n-5.63
o5
o0
v1
n-0.904
n2
o0
v1
n-0.904
o2
o2
n4
o0
o2
o2
n-0.01866874
o5
v0
n3
o44
o0
o2
n-8.88
o5
o0
v0
n-0.546
n2
o2
n-5.63
o5
o0
v1
n-0.904
n2
o2
o2
o2
n-17.76
o0
v0
n-0.546
o44
o0
o2
n-8.88
o5
o0
v0
n-0.546
n2
o2
n-5.63
o5
o0
v1
n-0.904
n2
o2
n-0.004667185
o5
v0
n4
o5
v1
n3
o2
o2
n-23.41708
v0
o44
o0
o2
n-8.23
o5
o0
v0
n-0.896
n2
o2
n-50.9
o5
o0
v1
n-1.42
n2
o2
o2
n-101.8
o0
o2
o2
o2
n-23.41708
v0
v1
o44
o0
o2
n-8.23
o5
o0
v0
n-0.896
n2
o2
n-50.9
o5
o0
v1
n-1.42
n2
o2
o2
o2
n-16.46
o0
v0
n-0.896
o2
o2
n-11.70854
o5
v0
n2
v1
o44
o0
o2
n-8.23
o5
o0
v0
n-0.896
n2
o2
n-50.9
o5
o0
v1
n-1.42
n2
o0
v1
n-1.42
o2
o2
o2
n-16.46
o0
v0
n-0.896
o44
o0
o2
n-8.23
o5
o0
v0
n-0.896
n2
o2
n-50.9
o5
o0
v1
n-1.42
n2
o2
n-11.70854
o5
v0
n2
o2
o2
n-3.12
o0
o2
o2
n0.9114512
o5
v1
n3.5
o44
o0
o2
n-2.01
o5
o0
v0
n-0.747
n2
o2
n-1.56
o5
o0
v1
n-0.926
n2
o2
o2
o2
n-4.02
o0
v0
n-0.747
o2
o2
n0.9114512
v0
o5
v1
n3.5
o44
o0
o2
n-2.01
o5
o0
v0
n-0.747
n2
o2
n-1.56
o5
o0
v1
n-0.926
n2
o0
v1
n-0.926
o2
o2
n3.5
o0
o2
n0.9114512
o44
o0
o2
n-2.01
o5
o0
v0
n-0.747
n2
o2
n-1.56
o5
o0
v1
n-0.926
n2
o2
o2
o2
n-4.02
o0
v0
n-0.747
o44
o0
o2
n-2.01
o5
o0
v0
n-0.747
n2
o2
n-1.56
o5
o0
v1
n-0.926
n2
o2
n0.9114512
v0
o5
v1
n2.5
O11 0
o0
o54
5
o2
n-0.29926
o5
o0
o16
o3
n1
v1
n1
n0.15
o2
n2.8025
o5
o0
o16
o3
n1
v1
n1
n0.3
o2
n-1.9602
o5
o0
o16
o3
n1
v1
n1
n0.44
o2
n2.0784
o5
o0
o16
o3
n1
v1
n1
n0.6
o2
n0.21701
o5
o0
o16
o3
n1
v1
n1
n2.75
n1.0
O12 0
o44
o54
7
o2
n-109.367
o5
o0
o16
o3
n1
v1
n1
n0.64
o2
n322.88
o5
o0
o16
o3
n1
v1
n1
n0.77
o2
n-485.87
o5
o0
o16
o3
n1
v1
n1
n0.96
o2
n417.1
o5
o0
o16
o3
n1
v1
n1
n1.2
o2
n-174.52
o5
o0
o16
o3
n1
v1
n1
n1.45
o2
n-52.695
o5
o0
o16
o3
n1
v1
n1
n5.35
o2
n-114.41
o5
o0
o16
o3
n1
v1
n1
n12.0
O13 0
n0.0
x2
0 1.00000001
1 1.0
r
b
3
3
k1
0
G0 2
0 0
1 11.0879509962
G1 1
0 0
G2 1
0 0
G3 1
1 0
G4 1
1 0
G5 2
0 0
1 0
G6 2
0 0
1 0
G7 2
0 0
1 0
G8 2
0 0
1 0
G9 2
0 0
1 0
G10 2
0 0
1 0
G11 1
1 0
G12 1
1 0
